(set-logic QF_S)
(declare-fun var0 () String)
(assert (str.in.re var0 (re.++ (re.* (re.union (str.to.re "00") (str.to.re "111"))) (re.++ (re.+ (re.* (str.to.re "22"))) (re.++ (re.+ (re.* (str.to.re "33"))) (re.++ (re.+ (re.* (str.to.re "444"))) (re.++ (re.+ (re.* (str.to.re "5"))) (re.++ (re.* (re.* (str.to.re "66"))) (re.++ (re.+ (re.+ (str.to.re "7"))) (re.++ (re.* (re.* (str.to.re "8"))) (re.++ (re.* (re.union (str.to.re "999") (str.to.re "aaa"))) (re.* (re.union (str.to.re "bb") (str.to.re "ccc"))))))))))))))
(assert (<= 226 (str.len var0)))
(check-sat)